c Circuit verification problem 08
c Simple circuit verification problem
c Generated for SAT solver benchmarking
c This problem represents a small combinational circuit
c Expected to be solvable in under 5 seconds
p cnf 65 220
1 2 3 0
-1 -2 0
-1 -3 0
2 -4 5 0
-2 4 0
-2 -5 0
3 6 -7 0
-3 -6 0
-3 7 0
4 5 8 0
-4 -8 0
-5 -8 0
6 7 9 0
-6 -9 0
-7 -9 0
8 -9 10 0
-8 -10 0
9 -10 0
10 11 12 0
-10 -11 0
-10 -12 0
11 -13 14 0
-11 13 0
-11 -14 0
12 15 -16 0
-12 -15 0
-12 16 0
13 14 17 0
-13 -17 0
-14 -17 0
15 16 18 0
-15 -18 0
-16 -18 0
17 -18 19 0
-17 -19 0
18 -19 0
19 20 21 0
-19 -20 0
-19 -21 0
20 -22 23 0
-20 22 0
-20 -23 0
21 24 -25 0
-21 -24 0
-21 25 0
22 23 26 0
-22 -26 0
-23 -26 0
24 25 27 0
-24 -27 0
-25 -27 0
26 -27 28 0
-26 -28 0
27 -28 0
28 29 30 0
-28 -29 0
-28 -30 0
29 -31 32 0
-29 31 0
-29 -32 0
30 33 -34 0
-30 -33 0
-30 34 0
31 32 35 0
-31 -35 0
-32 -35 0
33 34 36 0
-33 -36 0
-34 -36 0
35 -36 37 0
-35 -37 0
36 -37 0
37 38 39 0
-37 -38 0
-37 -39 0
38 -40 41 0
-38 40 0
-38 -41 0
39 42 -43 0
-39 -42 0
-39 43 0
40 41 44 0
-40 -44 0
-41 -44 0
42 43 45 0
-42 -45 0
-43 -45 0
44 -45 46 0
-44 -46 0
45 -46 0
46 47 48 0
-46 -47 0
-46 -48 0
47 -49 50 0
-47 49 0
-47 -50 0
48 51 -52 0
-48 -51 0
-48 52 0
49 50 53 0
-49 -53 0
-50 -53 0
51 52 54 0
-51 -54 0
-52 -54 0
53 -54 55 0
-53 -55 0
54 -55 0
55 56 57 0
-55 -56 0
-55 -57 0
56 -58 59 0
-56 58 0
-56 -59 0
57 60 -61 0
-57 -60 0
-57 61 0
58 59 62 0
-58 -62 0
-59 -62 0
60 61 63 0
-60 -63 0
-61 -63 0
62 -63 64 0
-62 -64 0
63 -64 0
64 -65 0
65 1 0
1 10 20 0
10 30 40 0
20 30 50 0
40 50 60 0
2 12 22 0
12 32 42 0
22 32 52 0
42 52 62 0
3 13 23 0
13 33 43 0
23 33 53 0
43 53 63 0
4 14 24 0
14 34 44 0
24 34 54 0
44 54 64 0
5 15 25 0
15 35 45 0
25 35 55 0
45 55 65 0
6 16 26 0
16 36 46 0
26 36 56 0
7 17 27 0
17 37 47 0
27 37 57 0
8 18 28 0
18 38 48 0
28 38 58 0
9 19 29 0
19 39 49 0
29 39 59 0
11 21 31 0
21 41 51 0
31 41 61 0
1 -10 0
2 -11 0
3 -12 0
4 -13 0
5 -14 0
6 -15 0
7 -16 0
8 -17 0
9 -18 0
10 -19 0
11 -20 0
12 -21 0
13 -22 0
14 -23 0
15 -24 0
16 -25 0
17 -26 0
18 -27 0
19 -28 0
20 -29 0
21 -30 0
22 -31 0
23 -32 0
24 -33 0
25 -34 0
26 -35 0
27 -36 0
28 -37 0
29 -38 0
30 -39 0
31 -40 0
32 -41 0
33 -42 0
34 -43 0
35 -44 0
36 -45 0
37 -46 0
38 -47 0
39 -48 0
40 -49 0
41 -50 0
42 -51 0
43 -52 0
44 -53 0
45 -54 0
46 -55 0
47 -56 0
48 -57 0
49 -58 0
50 -59 0
51 -60 0
52 -61 0
53 -62 0
54 -63 0
55 -64 0
56 -65 0